100 125
23 20 24 38 23 58 51 43 39 21 24 50 45 42 54 29 24 22 56 24 20 45 23 34 38
44 56 41 57 57 49 79 35 68 65 80 61 59 69 68 75 39 42 53 49 66 53 50 75 28
1012 1120 984 2166 1311 2842 4029 1505 2652 1365 1920 3050 2655 2898 3672 2175 936 924 2968 1176 1320 2385 1150 2550 1064